Route #1: 4 30 41 24 19 44 36 2
Route #2: 40 12 22 38 17 11 43 33
Route #3: 14 10 7 15 39 37 3 1 32 5
Route #4: 16 28 6 34 20 29 25
Route #5: 35 18 21 31 13 27 26 23 42
Route #6: 9 8
cost 1369.864022377783
